FILENAME:   /home/mcs001/s132664/testsets/IP/miplib2017/fastxgemm-n3r21s3t6.mps.gz
SETTINGS:   settings_isopr_ostrowskidynamicbranching_avoidsubtreenodes
TIMELIMIT:  7200
OUTPUTNAME: final_miplib_symretope_if_extended_generating_set_cpx_v802__settings_isopr_ostrowskidynamicbranching_avoidsubtreenodes__1__
BINNAME:    bin/symmetries.linux.x86_64.gnu.opt.cpx
BASENAME:   fastxgemm-n3r21s3t6.mps.gz
SEED:       1
@01 /home/mcs001/s132664/testsets/IP/miplib2017/fastxgemm-n3r21s3t6.mps.gz ===========
@02 fastxgemm-n3r21s3t6.mps.gz
@03 1686574173
SCIP version 8.0.2 [precision: 8 byte] [memory: block] [mode: optimized] [LP solver: CPLEX 20.1.0.0] [GitHash: 5f0473c]
Copyright (C) 2002-2022 Konrad-Zuse-Zentrum fuer Informationstechnik Berlin (ZIB)

Symmetry handling routines - (c) Marc Pfetsch, Thomas Rehn, Christopher Hojny.
[GitHash: a1587cb]


Turned off presolver <gateextraction>.
reading parameter file <../settings/settings_isopr_ostrowskidynamicbranching_avoidsubtreenodes.set> ...

Changed settings:
limits/time = 7200
limits/restarts = 0
randomization/randomseedshift = 1
constraints/orbitope/sepafreq = -1
constraints/orbitope/propfreq = 1
presolving/gateextraction/maxrounds = 0
propagating/isoprune/avoidsubtreenodes = TRUE
useisoprune = TRUE


solving problem ...

original problem has 18684 variables (378 bin, 0 int, 0 impl, 18306 cont) and 219368 constraints
presolving:
(round 1, exhaustive) 0 del vars, 61236 del conss, 0 add conss, 0 chg bounds, 0 chg sides, 0 chg coeffs, 0 upgd conss, 0 impls, 189 clqs
(round 2, exhaustive) 0 del vars, 61236 del conss, 0 add conss, 0 chg bounds, 0 chg sides, 0 chg coeffs, 93646 upgd conss, 0 impls, 189 clqs
(round 3, exhaustive) 25 del vars, 61236 del conss, 0 add conss, 0 chg bounds, 0 chg sides, 0 chg coeffs, 93646 upgd conss, 2322 impls, 1071 clqs
(round 4, exhaustive) 50 del vars, 61297 del conss, 0 add conss, 0 chg bounds, 0 chg sides, 0 chg coeffs, 93646 upgd conss, 2322 impls, 1011 clqs
(round 5, medium)     50 del vars, 61428 del conss, 0 add conss, 0 chg bounds, 0 chg sides, 0 chg coeffs, 93646 upgd conss, 2322 impls, 1012 clqs
(round 6, exhaustive) 75 del vars, 61428 del conss, 0 add conss, 0 chg bounds, 0 chg sides, 0 chg coeffs, 93646 upgd conss, 2322 impls, 952 clqs
(round 7, exhaustive) 100 del vars, 61543 del conss, 0 add conss, 0 chg bounds, 0 chg sides, 0 chg coeffs, 93646 upgd conss, 2322 impls, 898 clqs
(round 8, exhaustive) 125 del vars, 61636 del conss, 0 add conss, 0 chg bounds, 0 chg sides, 0 chg coeffs, 93646 upgd conss, 2322 impls, 844 clqs
(round 9, exhaustive) 150 del vars, 61729 del conss, 0 add conss, 0 chg bounds, 0 chg sides, 0 chg coeffs, 93646 upgd conss, 2322 impls, 790 clqs
(round 10, exhaustive) 175 del vars, 61807 del conss, 0 add conss, 0 chg bounds, 0 chg sides, 0 chg coeffs, 93646 upgd conss, 2322 impls, 726 clqs
(round 11, medium)     175 del vars, 62054 del conss, 0 add conss, 0 chg bounds, 0 chg sides, 0 chg coeffs, 93646 upgd conss, 2322 impls, 726 clqs
(round 12, exhaustive) 200 del vars, 62054 del conss, 0 add conss, 0 chg bounds, 0 chg sides, 0 chg coeffs, 93646 upgd conss, 2322 impls, 676 clqs
(round 13, exhaustive) 225 del vars, 62080 del conss, 0 add conss, 0 chg bounds, 0 chg sides, 0 chg coeffs, 93646 upgd conss, 2322 impls, 718 clqs
(round 14, exhaustive) 250 del vars, 62157 del conss, 0 add conss, 0 chg bounds, 0 chg sides, 0 chg coeffs, 93646 upgd conss, 2322 impls, 660 clqs
(round 15, exhaustive) 275 del vars, 62270 del conss, 0 add conss, 0 chg bounds, 0 chg sides, 0 chg coeffs, 93646 upgd conss, 2322 impls, 602 clqs
(round 16, medium)     275 del vars, 62416 del conss, 0 add conss, 0 chg bounds, 0 chg sides, 0 chg coeffs, 93646 upgd conss, 2322 impls, 602 clqs
(round 17, exhaustive) 300 del vars, 62416 del conss, 0 add conss, 0 chg bounds, 0 chg sides, 0 chg coeffs, 93646 upgd conss, 2322 impls, 550 clqs
(round 18, exhaustive) 325 del vars, 62478 del conss, 0 add conss, 0 chg bounds, 0 chg sides, 0 chg coeffs, 93646 upgd conss, 2322 impls, 548 clqs
(round 19, medium)     325 del vars, 62616 del conss, 0 add conss, 0 chg bounds, 0 chg sides, 0 chg coeffs, 93646 upgd conss, 2322 impls, 548 clqs
(round 20, exhaustive) 350 del vars, 62616 del conss, 0 add conss, 0 chg bounds, 0 chg sides, 0 chg coeffs, 93646 upgd conss, 2322 impls, 476 clqs
(round 21, medium)     350 del vars, 62983 del conss, 0 add conss, 0 chg bounds, 0 chg sides, 0 chg coeffs, 93646 upgd conss, 2322 impls, 476 clqs
(round 22, exhaustive) 375 del vars, 62983 del conss, 0 add conss, 0 chg bounds, 0 chg sides, 0 chg coeffs, 93646 upgd conss, 2322 impls, 438 clqs
   (15.6s) probing cycle finished: starting next cycle
Required symmetry:			(1 bin, 0 int, 0 cont); (fixed: 0 bin, 1 int, 0 cont)
Time for symmetry detection:		3.20 	(matrix graph, 271157 nodes, 1426338 edges)
Number of generators:			7 	(max: 1500)
Order of symmetry group:		34992
Log10 of symmetry group order:		4.5
Number of vars moved by some symmetry:	18135
Total time for symmetry detection:	3.23

Turned off presolver <domcol>.
Turned off presolver <components>.

presolving (23 rounds: 23 fast, 23 medium, 18 exhaustive):
 378 deleted vars, 63069 deleted constraints, 0 added constraints, 0 tightened bounds, 0 added holes, 0 changed sides, 0 changed coefficients
 3456 implications, 432 cliques
presolved problem has 18306 variables (378 bin, 0 int, 756 impl, 17172 cont) and 156300 constraints
  91584 constraints of type <varbound>
      1 constraints of type <knapsack>
    192 constraints of type <setppc>
  64486 constraints of type <linear>
     36 constraints of type <logicor>
      1 constraints of type <symmetries>
Presolving Time: 22.26

 time | node  | left  |LP iter|LP it/n|mem/heur|mdpt |frac |vars |cons |cols |rows |cuts |confs|strbr|  dualbound   | primalbound  |  gap   
p24.2s|     1 |     0 |     0 |     - |shiftand|   0 |   - |  18k| 156k|  18k| 156k|   0 |   3 |   0 | 0.000000e+00 | 6.708400e+04 |    Inf 
 41.6s|     1 |     0 |    45 |     - |   568M |   0 | 180 |  18k| 156k|  18k| 156k|   0 |   3 |   0 | 8.400000e+01 | 6.708400e+04 |  Large 
 1277s|     1 |     2 | 23413 |     - |   604M |   0 | 180 |  18k| 156k|  18k| 156k|   0 |   3 |  56 | 8.400000e+01 | 6.708400e+04 |  Large 
 2937s|   100 |   101 |186229 |1880.6 |   616M |  39 | 169 |  18k| 156k|  18k| 156k|   0 |  13 |  56 | 8.400000e+01 | 6.708400e+04 |  Large 
 6070s|   200 |   201 |479387 |2408.8 |   640M |  39 | 146 |  18k| 156k|  18k| 156k|   0 |  29 |  56 | 8.400000e+01 | 6.708400e+04 |  Large 
L7201s|   201 |   202 |480350 |2401.5 |    rins|  39 | 140 |  18k| 156k|  18k| 156k|   0 |  29 |  56 | 8.400000e+01 | 5.208400e+04 |  Large 

SCIP Status        : solving was interrupted [time limit reached]
Solving Time (sec) : 7200.94
Solving Nodes      : 201
Primal Bound       : +5.20840000000000e+04 (2 solutions)
Dual Bound         : +8.40000000000000e+01
Gap                : 61904.76 %

Number of variables fixed to 0 by isomorphism pruning:	   145
Number of variables fixed to 1 by isomorphism pruning:	     0
@04 1686581376
